%nproc=32
%mem=40GB
#force wB97XD/6-31G(d)

mol

0 1
C 29.61 23.610000000000003 15.25
C 30.25 23.53 14.01
C 29.51 23.21 12.87
C 28.15 22.919999999999998 12.95
C 27.519999999999996 22.91 14.2
C 28.23 23.39 15.309999999999999
Cl 25.910000000000004 22.27 14.399999999999999
C 27.400000000000002 22.759999999999998 11.67
O 27.490000000000002 21.77 10.95
N 26.6 23.849999999999998 11.43
C 25.590000000000003 24.009999999999998 10.45
C 25.73 23.39 9.200000000000001
C 24.87 23.740000000000002 8.149999999999999
N 23.799999999999997 24.52 8.32
C 23.56 25.06 9.52
C 24.48 24.860000000000003 10.549999999999999
N 22.450000000000003 25.9 9.73
C 21.53 26.38 8.82
O 21.709999999999997 26.389999999999997 7.61
Cl 30.339999999999996 23.25 11.33
H 30.19 23.759999999999998 16.16
H 31.32 23.71 13.95
H 27.73 23.450000000000003 16.27
H 26.73 24.689999999999998 11.98
H 26.619999999999997 22.82 8.97
H 25.03 23.3 7.17
H 24.48 25.53 11.41
H 22.1 25.880000000000003 10.68
C 19.14 27.0 8.85
H 19.310000000000002 27.94 8.299999999999999
H 18.700000000000003 26.22 8.23
O 20.369999999999997 26.619999999999997 9.48
H 18.400000000000002 27.240000000000002 9.62

