%nproc=32
%mem=40GB
#force wB97XD/6-31G(d)

mol

0 1
C 25.38 23.01 17.2
C 25.38 24.32 16.7
C 26.14 24.56 15.549999999999999
C 26.92 23.54 15.0
C 26.82 22.22 15.45
C 26.07 21.96 16.599999999999998
Cl 27.82 20.990000000000002 14.71
C 27.7 23.769999999999996 13.75
O 28.82 24.25 13.78
N 26.95 23.57 12.61
C 27.28 23.95 11.29
C 28.54 23.650000000000002 10.760000000000002
C 28.87 24.18 9.51
N 28.14 25.099999999999998 8.870000000000001
C 26.880000000000003 25.25 9.280000000000001
C 26.43 24.740000000000002 10.51
N 25.97 26.02 8.52
C 24.689999999999998 25.67 8.129999999999999
O 24.19 24.62 8.469999999999999
Cl 26.110000000000003 26.16 14.84
H 24.860000000000003 22.75 18.11
H 24.82 25.139999999999997 17.14
H 26.0 20.92 16.93
H 26.03 23.15 12.69
H 29.24 23.15 11.41
H 29.950000000000003 24.27 9.350000000000001
H 25.4 24.93 10.77
H 26.36 26.86 8.120000000000001
H 24.52 26.77 6.42
C 23.91 26.709999999999997 7.33
C 22.450000000000003 26.36 7.0
C 21.77 27.72 6.800000000000001
C 22.509999999999998 28.72 7.71
C 23.900000000000002 28.11 7.970000000000001
H 21.869999999999997 25.85 7.78
H 22.46 25.73 6.1
H 21.65 28.090000000000003 5.779999999999999
H 20.73 27.69 7.17
H 22.46 29.75 7.35
H 21.880000000000003 28.68 8.61
H 24.049999999999997 28.0 9.05
H 24.75 28.72 7.62

