%nproc=32
%mem=40GB
#force wB97XD/6-31G(d)

mol

0 1
C 29.24 25.52 16.35
C 28.439999999999998 26.66 16.43
C 27.480000000000004 27.01 15.469999999999999
C 27.240000000000002 26.12 14.43
C 28.090000000000003 25.019999999999996 14.290000000000001
C 29.07 24.689999999999998 15.24
Cl 27.93 23.889999999999997 12.96
C 26.150000000000002 26.389999999999997 13.45
O 26.34 26.490000000000002 12.25
N 24.88 26.41 14.0
C 23.63 26.47 13.360000000000001
C 22.56 27.15 13.94
C 21.32 27.07 13.3
N 21.12 26.419999999999998 12.14
C 22.18 25.84 11.559999999999999
C 23.47 25.880000000000003 12.1
N 22.14 25.28 10.26
C 22.839999999999996 24.2 9.76
O 23.59 23.5 10.41
C 22.53 23.88 8.32
C 23.21 24.75 7.29
C 23.479999999999997 23.27 7.33
C 24.849999999999998 22.810000000000002 7.78
Cl 26.63 28.53 15.66
H 21.46 23.740000000000002 8.17
H 22.99 22.71 6.53
H 29.87 25.240000000000002 17.19
H 28.53 27.37 17.25
H 29.759999999999998 23.86 15.2
H 24.87 26.5 15.009999999999998
H 22.7 27.79 14.81
H 20.52 27.73 13.61
H 24.27 25.33 11.61
H 21.58 25.68 9.52
H 22.549999999999997 25.12 6.51
H 23.97 25.419999999999998 7.68
H 25.32 23.56 8.42
H 24.8 21.86 8.34
H 25.459999999999997 22.58 6.8999999999999995

