%nproc=32
%mem=40GB
#force wB97XD/6-31G(d)

mol

0 1
C 24.529999999999998 18.990000000000002 11.75
C 25.85 19.439999999999998 11.67
C 26.17 20.64 11.020000000000001
C 25.150000000000002 21.509999999999998 10.64
C 23.82 21.16 10.9
C 23.52 19.93 11.5
Cl 22.490000000000002 22.22 10.48
C 25.4 22.740000000000002 9.84
O 25.8 22.72 8.69
N 25.04 23.900000000000002 10.489999999999998
C 25.18 25.259999999999998 10.16
C 26.230000000000004 25.64 9.31
C 26.45 27.01 9.14
N 25.779999999999998 27.99 9.77
C 24.88 27.59 10.68
C 24.56 26.25 10.920000000000002
N 24.24 28.610000000000003 11.419999999999998
C 24.52 28.990000000000002 12.72
O 25.35 28.439999999999998 13.420000000000002
C 23.75 30.12 13.34
C 24.03 30.779999999999998 14.670000000000002
C 24.32 31.509999999999998 13.39
Cl 26.0 31.65 12.8
Cl 27.869999999999997 20.979999999999997 10.8
H 22.71 30.099999999999998 13.02
H 23.599999999999998 32.22 12.96
H 24.209999999999997 18.11 12.290000000000001
H 26.63 18.740000000000002 11.93
H 22.450000000000003 19.72 11.57
H 24.82 23.78 11.47
H 26.74 24.93 8.67
H 27.18 27.349999999999998 8.41
H 23.72 26.09 11.59
H 23.490000000000002 29.07 10.93
H 23.159999999999997 31.04 15.27
H 24.77 30.310000000000002 15.309999999999999

