%nproc=32
%mem=40GB
#force wB97XD/6-31G(d)

mol

0 1
C 27.450000000000003 21.68 16.97
C 27.32 21.14 15.68
C 26.400000000000002 21.669999999999998 14.78
C 25.58 22.75 15.129999999999999
C 25.67 23.279999999999998 16.419999999999998
C 26.589999999999996 22.72 17.32
Cl 24.630000000000003 24.57 17.0
C 24.67 23.450000000000003 14.190000000000001
O 23.490000000000002 23.15 14.13
N 25.259999999999998 24.57 13.65
C 24.759999999999998 25.43 12.649999999999999
C 23.439999999999998 25.86 12.52
C 23.1 26.76 11.5
N 24.0 27.34 10.700000000000001
C 25.28 27.040000000000003 10.93
C 25.689999999999998 26.02 11.790000000000001
N 26.25 27.73 10.16
C 27.39 28.34 10.64
O 27.669999999999998 28.31 11.83
Cl 26.25 21.009999999999998 13.17
H 28.25 21.419999999999998 17.66
H 27.869999999999997 20.25 15.4
H 26.74 23.26 18.25
H 26.259999999999998 24.62 13.81
H 22.71 25.32 13.120000000000001
H 22.11 27.189999999999998 11.41
H 26.77 25.92 11.92
H 25.92 28.24 9.350000000000001
C 29.51 30.61 7.68
C 28.96 29.369999999999997 7.35
C 28.26 28.599999999999998 8.29
C 28.17 29.07 9.6
C 28.79 30.259999999999998 9.97
C 29.45 31.04 9.02
H 30.08 31.19 6.97
H 29.1 28.98 6.35
H 27.810000000000002 27.650000000000002 8.02
H 28.700000000000003 30.65 10.98
H 29.93 31.939999999999998 9.379999999999999

