%nproc=32
%mem=40GB
#force wB97XD/6-31G(d)

mol

0 1
C 20.73 20.7 13.75
C 20.75 21.75 12.829999999999998
C 21.95 22.46 12.68
C 23.11 22.080000000000002 13.360000000000001
C 23.060000000000002 21.03 14.28
C 21.89 20.270000000000003 14.41
Cl 24.540000000000003 20.419999999999998 14.990000000000002
C 24.36 22.810000000000002 12.989999999999998
O 24.540000000000003 23.96 13.32
N 25.270000000000003 22.14 12.190000000000001
C 26.240000000000002 22.759999999999998 11.379999999999999
C 27.53 22.229999999999997 11.27
C 28.46 22.88 10.46
N 28.26 24.089999999999996 9.92
C 27.029999999999998 24.62 9.97
C 26.03 23.98 10.72
N 26.74 25.92 9.5
C 25.52 26.38 9.040000000000001
O 24.48 25.75 9.0
C 25.7 27.85 8.65
Cl 22.1 23.380000000000003 11.200000000000001
H 26.589999999999996 27.94 8.02
H 19.830000000000002 20.099999999999998 13.819999999999999
H 19.91 21.869999999999997 12.16
H 21.76 19.56 15.209999999999999
H 24.94 21.230000000000004 11.899999999999999
H 27.85 21.419999999999998 11.91
H 29.439999999999998 22.41 10.41
H 25.09 24.48 10.93
H 27.5 26.58 9.53
C 25.830000000000002 28.730000000000004 9.9
H 24.759999999999998 28.159999999999997 8.18
H 24.849999999999998 28.69 10.41
H 26.58 28.35 10.600000000000001
H 26.200000000000003 29.72 9.61

